NAME : P132112.58310.tour
COMMENT : Length = 58310
COMMENT : Found by LKH-3 [Keld Helsgaun] Tue Dec 17 14:07:43 2024
TYPE : TOUR
DIMENSION : 170
TOUR_SECTION
1
161
2
20
162
3
163
4
13
164
5
11
165
6
22
30
26
31
15
32
25
23
16
27
29
53
44
64
18
65
57
17
43
68
62
45
71
72
54
48
42
47
51
66
37
69
46
61
63
49
12
35
36
59
67
58
41
38
70
52
50
56
60
34
39
55
40
19
135
134
133
142
126
137
119
138
147
160
122
116
151
155
145
143
153
156
125
117
149
130
129
127
131
120
154
139
144
118
140
148
158
150
124
146
132
121
136
123
159
141
128
152
157
24
33
14
28
166
7
167
8
80
105
79
94
78
86
104
98
90
76
115
97
82
96
81
83
74
84
103
92
85
111
75
101
89
73
102
95
113
112
99
108
110
106
93
88
91
109
114
77
100
87
107
21
168
9
169
10
170
-1
EOF
